n=20;
demand=2;
horizon=20;
est=[8,13,6,0,0,3,16,12,8,18,6,14,2,14,5,10,0,11,12,10];
processing_time=[3,5,10,18,15,7,2,7,8,2,4,3,11,5,8,7,7,9,8,9];
lct=[17,19,20,20,17,10,18,19,19,20,16,18,13,20,13,17,17,20,20,19];
